\* Problem: Unknown *\

Maximize
 obj: + xp_0_0 + xp_1_0 + xp_1_1 + xp_1_2 + xp_1_3 + xp_1_4 + xp_1_5
 + xp_1_6 + xp_1_7 + xp_2_0 + xp_2_1 + xp_2_2 + xp_2_3 + xp_3_0 + xp_3_1
 + xp_3_2 + xp_3_3 + xp_3_4 + xp_3_5 + xp_3_6 + xp_4_0 + xp_4_1 + xp_5_0
 + xp_5_1 + xp_5_2 + xp_6_0 + xp_6_1 + xp_7_0 + xp_7_1 + xp_8_0 + xp_8_1
 + xp_8_2 + xp_9_0 + xp_9_1 + xp_9_2 + xp_10_0 + xp_10_1 + xp_10_2
 + xp_10_3 + xp_10_4 + xp_11_0 + xp_12_0 + xp_12_1 + xp_13_0 + xp_13_1
 + xp_13_2 + xp_13_3 + xp_14_0 + xp_14_1 + xp_14_2 + xp_14_3 + xp_14_4
 + xp_14_5 + xp_14_6 + xp_15_0 + xp_15_1 + xp_15_2 + xp_16_0 + xp_17_0
 + xp_17_1 + xp_17_2 + xp_17_3 + xp_18_0 + xp_18_1 + xp_18_2 + xp_19_0
 + xp_19_1 + xp_19_2 + xp_19_3 + xp_19_4 + xp_19_5 + xp_20_0 + xp_20_1
 + xp_20_2 + xp_20_3 + xp_20_4 + xp_20_5 + xp_20_6 + xp_20_7 + xp_21_0
 + xp_21_1 + xp_21_2 + xp_21_3 + xp_21_4 + xp_21_5

Subject To
 r_1: + xp_20_0 <= 0.98969696969697
 r_2: + xp_10_0 + xp_2_1 <= 0.98969696969697
 r_3: + xp_20_5 + xp_20_3 + xp_10_1 <= 0.972070098576123
 r_4: + xp_20_4 + xp_19_3 + xp_18_0 + xp_10_3 <= 0.957542457542458
 r_5: + xp_20_7 + xp_20_6 + xp_10_4 + xp_3_4 + xp_3_2 + xp_1_5
 <= 0.951196172248804
 r_6: + xp_11_0 <= 0.957542457542458
 r_7: + xp_20_2 + xp_10_2 <= 0.98969696969697
 r_8: + xp_20_1 <= 0.964472309299895
 r_9: + xp_2_0 <= 0.98969696969697
 r_10: 0 xp_0_0 <= 0.972070098576123
 r_11: 0 xp_0_0 <= 0.98969696969697
 r_12: 0 xp_0_0 <= 0.964472309299895
 r_13: + xp_12_1 <= 0.957542457542458
 r_14: + xp_2_3 <= 0.957542457542458
 r_15: + xp_21_2 + xp_1_4 <= 0.951196172248804
 r_16: + xp_13_1 <= 0.98969696969697
 r_17: + xp_9_2 <= 0.98969696969697
 r_18: + xp_19_0 <= 0.957542457542458
 r_19: + xp_14_6 + xp_14_2 <= 0.98969696969697
 r_20: + xp_1_2 <= 0.980437284234753
 r_21: 0 xp_0_0 <= 0.972070098576123
 r_22: + xp_3_6 + xp_1_7 <= 0.957542457542458
 r_23: 0 xp_0_0 <= 0.964472309299895
 r_24: 0 xp_0_0 <= 0.964472309299895
 r_25: 0 xp_0_0 <= 0.951196172248804
 r_26: + xp_17_0 <= 0.951196172248804
 r_27: + xp_20_7 + xp_1_5 + xp_1_4 + xp_1_0 <= 0.980437284234753
 r_28: + xp_4_1 <= 0.972070098576123
 r_29: + xp_17_3 + xp_14_3 + xp_10_4 + xp_5_2 <= 0.951196172248804
 r_30: + xp_20_6 + xp_19_4 + xp_17_1 <= 0.957542457542458
 r_31: 0 xp_0_0 <= 0.951196172248804
 r_32: + xp_19_1 + xp_17_2 <= 0.957542457542458
 r_33: + xp_21_4 + xp_21_1 + xp_13_3 + xp_1_3 <= 0.980437284234753
 r_34: + xp_13_0 <= 0.957542457542458
 r_35: + xp_21_2 + xp_17_2 + xp_13_1 <= 0.957542457542458
 r_36: + xp_21_5 + xp_21_3 + xp_13_2 + xp_3_5 <= 0.957542457542458
 r_37: + xp_9_1 + xp_3_4 <= 0.957542457542458
 r_38: 0 xp_0_0 <= 0.964472309299895
 r_39: + xp_21_0 + xp_3_1 <= 0.957542457542458
 r_40: + xp_19_5 <= 0.957542457542458
 r_41: 0 xp_0_0 <= 0.98969696969697
 r_42: + xp_17_3 + xp_15_1 + xp_14_4 + xp_14_3 + xp_8_1
 <= 0.98969696969697
 r_43: + xp_1_6 <= 0.980437284234753
 r_44: 0 xp_0_0 <= 0.972070098576123
 r_45: 0 xp_0_0 <= 0.951196172248804
 r_46: 0 xp_0_0 <= 1
 r_47: + xp_6_0 <= 0.980437284234753
 r_48: + xp_19_2 + xp_18_2 + xp_6_1 <= 0.957542457542458
 r_49: 0 xp_0_0 <= 0.972070098576123
 r_50: + xp_20_7 + xp_20_5 + xp_20_2 + xp_14_6 + xp_13_3
 <= 0.980437284234753
 r_51: + xp_21_1 + xp_5_2 <= 0.980437284234753
 r_52: + xp_5_0 <= 0.980437284234753
 r_53: + xp_21_4 + xp_5_1 <= 0.980437284234753
 r_54: + xp_10_3 + xp_8_1 + xp_2_3 <= 0.957542457542458
 r_55: + xp_7_0 + xp_1_7 <= 0.957542457542458
 r_56: + xp_19_5 + xp_19_4 + xp_19_3 + xp_19_2 + xp_6_1
 <= 0.957542457542458
 r_57: 0 xp_0_0 <= 0.957542457542458
 r_58: + xp_17_1 + xp_15_2 + xp_14_5 + xp_8_0 <= 0.957542457542458
 r_59: + xp_20_6 + xp_20_4 + xp_16_0 + xp_13_2 <= 0.957542457542458
 r_60: + xp_21_3 + xp_3_6 + xp_3_5 <= 0.957542457542458
 r_61: + xp_21_5 + xp_8_2 + xp_7_1 <= 0.957542457542458
 r_62: + xp_20_5 + xp_19_2 + xp_18_2 + xp_14_6 + xp_1_1
 <= 0.972070098576123
 r_63: + xp_19_3 + xp_18_0 <= 0.972070098576123
 r_64: + xp_14_0 <= 0.972070098576123
 r_65: + xp_20_3 + xp_19_0 + xp_14_2 <= 0.972070098576123
 r_66: + xp_19_4 + xp_19_1 + xp_14_3 <= 0.972070098576123
 r_67: + xp_19_5 + xp_14_4 + xp_10_1 + xp_2_2 + xp_1_6
 <= 0.972070098576123
 r_68: + xp_18_1 + xp_14_5 + xp_14_1 + xp_3_3 <= 0.972070098576123
 r_69: 0 xp_0_0 <= 0.964472309299895
 r_70: 0 xp_0_0 <= 0.964472309299895
 r_71: + xp_15_0 + xp_14_1 + xp_8_2 <= 0.98969696969697
 r_72: 0 xp_0_0 <= 0.98969696969697
 r_73: + xp_21_5 + xp_21_4 + xp_4_1 + xp_3_3 <= 0.951196172248804
 r_74: + xp_15_1 + xp_10_2 + xp_5_1 <= 1
 r_75: + xp_20_2 + xp_7_1 <= 0.980437284234753
 r_76: + xp_18_1 + xp_15_2 + xp_14_5 <= 0.957542457542458
 r_77: + xp_4_0 <= 0.972070098576123
 r_78: + xp_3_0 + xp_1_0 <= 0.964472309299895
 r_79: + xp_0_0 <= 0.964472309299895
 r_80: + xp_12_1 + xp_2_3 + xp_2_0 + xp_1_4 <= 0.964472309299895
 r_81: + xp_9_0 + xp_3_2 + xp_2_1 + xp_1_5 <= 0.964472309299895
 r_82: + xp_20_1 + xp_9_2 + xp_3_6 + xp_1_7 + xp_1_2
 <= 0.964472309299895
 r_83: + xp_12_0 + xp_9_1 + xp_3_5 + xp_3_4 + xp_3_1 + xp_1_3
 <= 0.964472309299895
 r_84: + xp_3_3 + xp_2_2 + xp_1_6 + xp_1_1 <= 0.964472309299895

Bounds
 0 <= xp_0_0 <= 0.857142857142857
 0 <= xp_1_0 <= 0.142857142857143
 0 <= xp_1_1 <= 0.142857142857143
 0 <= xp_1_2 <= 0.5
 0 <= xp_1_3 <= 0.0714285714285714
 0 <= xp_1_4 <= 0.142857142857143
 0 <= xp_1_5 <= 0.0714285714285714
 0 <= xp_1_6 <= 0.142857142857143
 0 <= xp_1_7 <= 0.0714285714285714
 0 <= xp_2_0 <= 0.5
 0 <= xp_2_1 <= 0.285714285714286
 0 <= xp_2_2 <= 0.357142857142857
 0 <= xp_2_3 <= 0.142857142857143
 0 <= xp_3_0 <= 0.857142857142857
 0 <= xp_3_1 <= 0.142857142857143
 0 <= xp_3_2 <= 0.142857142857143
 0 <= xp_3_3 <= 0.142857142857143
 0 <= xp_3_4 <= 0.142857142857143
 0 <= xp_3_5 <= 0.142857142857143
 0 <= xp_3_6 <= 0.142857142857143
 0 <= xp_4_0 <= 0.357142857142857
 0 <= xp_4_1 <= 0.0714285714285714
 0 <= xp_5_0 <= 0.571428571428571
 0 <= xp_5_1 <= 0.142857142857143
 0 <= xp_5_2 <= 0.142857142857143
 0 <= xp_6_0 <= 0.714285714285714
 0 <= xp_6_1 <= 0.142857142857143
 0 <= xp_7_0 <= 0.357142857142857
 0 <= xp_7_1 <= 0.0714285714285714
 0 <= xp_8_0 <= 0.214285714285714
 0 <= xp_8_1 <= 0.142857142857143
 0 <= xp_8_2 <= 0.0714285714285714
 0 <= xp_9_0 <= 0.285714285714286
 0 <= xp_9_1 <= 0.0714285714285714
 0 <= xp_9_2 <= 0.0714285714285714
 0 <= xp_10_0 <= 0.428571428571429
 0 <= xp_10_1 <= 0.0714285714285714
 0 <= xp_10_2 <= 0.357142857142857
 0 <= xp_10_3 <= 0.214285714285714
 0 <= xp_10_4 <= 0.214285714285714
 0 <= xp_11_0 <= 0.857142857142857
 0 <= xp_12_0 <= 0.285714285714286
 0 <= xp_12_1 <= 0.142857142857143
 0 <= xp_13_0 <= 0.857142857142857
 0 <= xp_13_1 <= 0.571428571428571
 0 <= xp_13_2 <= 0.142857142857143
 0 <= xp_13_3 <= 0.142857142857143
 0 <= xp_14_0 <= 0.928571428571429
 0 <= xp_14_1 <= 0.285714285714286
 0 <= xp_14_2 <= 0.428571428571429
 0 <= xp_14_3 <= 0.142857142857143
 0 <= xp_14_4 <= 0.142857142857143
 0 <= xp_14_5 <= 0.142857142857143
 0 <= xp_14_6 <= 0.0714285714285714
 0 <= xp_15_0 <= 0.428571428571429
 0 <= xp_15_1 <= 0.142857142857143
 0 <= xp_15_2 <= 0.285714285714286
 0 <= xp_16_0 <= 0.428571428571429
 0 <= xp_17_0 <= 0.857142857142857
 0 <= xp_17_1 <= 0.142857142857143
 0 <= xp_17_2 <= 0.142857142857143
 0 <= xp_17_3 <= 0.142857142857143
 0 <= xp_18_0 <= 0.214285714285714
 0 <= xp_18_1 <= 0.0714285714285714
 0 <= xp_18_2 <= 0.142857142857143
 0 <= xp_19_0 <= 0.285714285714286
 0 <= xp_19_1 <= 0.571428571428571
 0 <= xp_19_2 <= 0.142857142857143
 0 <= xp_19_3 <= 0.142857142857143
 0 <= xp_19_4 <= 0.0714285714285714
 0 <= xp_19_5 <= 0.0714285714285714
 0 <= xp_20_0 <= 1
 0 <= xp_20_1 <= 0.142857142857143
 0 <= xp_20_2 <= 0.357142857142857
 0 <= xp_20_3 <= 0.214285714285714
 0 <= xp_20_4 <= 0.0714285714285714
 0 <= xp_20_5 <= 0.142857142857143
 0 <= xp_20_6 <= 0.0714285714285714
 0 <= xp_20_7 <= 0.142857142857143
 0 <= xp_21_0 <= 0.5
 0 <= xp_21_1 <= 0.285714285714286
 0 <= xp_21_2 <= 0.0714285714285714
 0 <= xp_21_3 <= 0.214285714285714
 0 <= xp_21_4 <= 0.0714285714285714
 0 <= xp_21_5 <= 0.142857142857143

End
